 vasp.5.4.4.18Apr17-6-g9f103f2a35 (build May 24 2018 15:12:59) complex

 executed on             LinuxIFC date 2018.07.07  11:22:16

 INCAR:
 POTCAR:    PAW_PBE Si 05Jan2001

 POTCAR:    PAW_PBE Si 05Jan2001
   VRHFIN =Si: s2p2

   TITEL  = PAW_PBE Si 05Jan2001
   POMASS =   28.085; ZVAL   =    4.000    mass and valenz
   ENMAX  =  245.345; ENMIN  =  184.009 eV

  PAW_PBE Si 05Jan2001                  :

 POSCAR: System Si
  positions in direct lattice
 exchange correlation table for  LEXCH =        8
   RHO(1)=    0.500       N(1)  =     2000
   RHO(2)=  100.500       N(2)  =     4000

 ion  position               nearest neighbor table
   1  0.000  0.000  0.000-   2 2.35   2 2.35   2 2.35   2 2.35
   2  0.250  0.250  0.250-   1 2.35   1 2.35   1 2.35   1 2.35

  LATTYP: Found a face centered cubic cell.
 ALAT       =     5.4299996803

  Lattice vectors:

 A1 = (   3.8395895958,   0.0000000000,   0.0000000000)
 A2 = (   1.9197947979,   3.3251821301,   0.0000000000)
 A3 = (   1.9197947979,   1.1083940434,   3.1350117771)

Analysis of symmetry for initial positions (statically):
 Subroutine PRICEL returns:
 Original cell was already a primitive cell.

 Routine SETGRP: Setting up the symmetry group for a
 face centered cubic supercell.

 Subroutine GETGRP returns: Found 48 space group operations
 (whereof 24 operations were pure point group operations)
 out of a pool of 48 trial point group operations.

The static configuration has the point symmetry T_d .
 The point group associated with its full space group is O_h .

Analysis of symmetry for dynamics (positions and initial velocities):
 Subroutine PRICEL returns:
 Original cell was already a primitive cell.

 Routine SETGRP: Setting up the symmetry group for a
 face centered cubic supercell.

 Subroutine GETGRP returns: Found 48 space group operations
 (whereof 24 operations were pure point group operations)
 out of a pool of 48 trial point group operations.

The dynamic configuration has the point symmetry T_d .
 The point group associated with its full space group is O_h .

 Subroutine INISYM returns: Found 48 space group operations
 (whereof 24 operations are pure point group operations),
 and found     1 'primitive' translations

 KPOINTS: Automatically generated mesh
  k-points in reciprocal lattice
Space group operators:
 irot       det(A)        alpha          n_x          n_y          n_z        tau_x        tau_y        tau_z
    1     1.000000     0.000000     1.000000     0.000000     0.000000     0.000000     0.000000     0.000000
    2     1.000000   120.000000    -0.816497    -0.471405    -0.333333     0.000000     0.000000     0.000000
    3     1.000000   120.000000     0.816497     0.471405     0.333333     0.000000     0.000000     0.000000
    4    -1.000000    90.000000    -0.707107    -0.408248     0.577350     0.000000     0.000000     0.000000
    5    -1.000000   180.000000     1.000000     0.000000     0.000000     0.000000     0.000000     0.000000
    6    -1.000000    90.000000     0.707107    -0.408248     0.577350     0.000000     0.000000     0.000000
    7     1.000000   180.000000     0.707107     0.408248    -0.577350     0.000000     0.000000     0.000000
    8     1.000000   120.000000     0.816497    -0.471405    -0.333333     0.000000     0.000000     0.000000
    9     1.000000   120.000000    -0.000000    -0.942809     0.333333     0.000000     0.000000     0.000000
   10    -1.000000    90.000000     0.707107     0.408248    -0.577350     0.000000     0.000000     0.000000
   11    -1.000000    90.000000     0.000000    -0.816497    -0.577350     0.000000     0.000000     0.000000
   12    -1.000000   180.000000     0.500000     0.866025    -0.000000     0.000000     0.000000     0.000000
   13     1.000000   120.000000    -0.000000     0.942809    -0.333333     0.000000     0.000000     0.000000
   14     1.000000   120.000000     0.000000    -0.000000    -1.000000     0.000000     0.000000     0.000000
   15     1.000000   180.000000     0.000000    -0.816497    -0.577350     0.000000     0.000000     0.000000
   16    -1.000000    90.000000    -0.707107     0.408248    -0.577350     0.000000     0.000000     0.000000
   17    -1.000000   180.000000     0.500000     0.288675     0.816497     0.000000     0.000000     0.000000
   18    -1.000000    90.000000     0.000000     0.816497     0.577350     0.000000     0.000000     0.000000
   19     1.000000   120.000000    -0.816497     0.471405     0.333333     0.000000     0.000000     0.000000
   20     1.000000   180.000000    -0.707107     0.408248    -0.577350     0.000000     0.000000     0.000000
   21     1.000000   120.000000     0.000000     0.000000     1.000000     0.000000     0.000000     0.000000
   22    -1.000000   180.000000     0.000000    -0.577350     0.816497     0.000000     0.000000     0.000000
   23    -1.000000   180.000000    -0.500000     0.866025    -0.000000     0.000000     0.000000     0.000000
   24    -1.000000   180.000000    -0.500000     0.288675     0.816497     0.000000     0.000000     0.000000
   25    -1.000000     0.000000     1.000000     0.000000     0.000000     0.250000     0.250000     0.250000
   26    -1.000000   120.000000    -0.816497    -0.471405    -0.333333     0.250000     0.250000     0.250000
   27    -1.000000   120.000000     0.816497     0.471405     0.333333     0.250000     0.250000     0.250000
   28     1.000000    90.000000    -0.707107    -0.408248     0.577350     0.250000     0.250000     0.250000
   29     1.000000   180.000000     1.000000     0.000000     0.000000     0.250000     0.250000     0.250000
   30     1.000000    90.000000     0.707107    -0.408248     0.577350     0.250000     0.250000     0.250000
   31    -1.000000   180.000000     0.707107     0.408248    -0.577350     0.250000     0.250000     0.250000
   32    -1.000000   120.000000     0.816497    -0.471405    -0.333333     0.250000     0.250000     0.250000
   33    -1.000000   120.000000    -0.000000    -0.942809     0.333333     0.250000     0.250000     0.250000
   34     1.000000    90.000000     0.707107     0.408248    -0.577350     0.250000     0.250000     0.250000
   35     1.000000    90.000000     0.000000    -0.816497    -0.577350     0.250000     0.250000     0.250000
   36     1.000000   180.000000     0.500000     0.866025    -0.000000     0.250000     0.250000     0.250000
   37    -1.000000   120.000000    -0.000000     0.942809    -0.333333     0.250000     0.250000     0.250000
   38    -1.000000   120.000000     0.000000    -0.000000    -1.000000     0.250000     0.250000     0.250000
   39    -1.000000   180.000000     0.000000    -0.816497    -0.577350     0.250000     0.250000     0.250000
   40     1.000000    90.000000    -0.707107     0.408248    -0.577350     0.250000     0.250000     0.250000
   41     1.000000   180.000000     0.500000     0.288675     0.816497     0.250000     0.250000     0.250000
   42     1.000000    90.000000     0.000000     0.816497     0.577350     0.250000     0.250000     0.250000
   43    -1.000000   120.000000    -0.816497     0.471405     0.333333     0.250000     0.250000     0.250000
   44    -1.000000   180.000000    -0.707107     0.408248    -0.577350     0.250000     0.250000     0.250000
   45    -1.000000   120.000000     0.000000     0.000000     1.000000     0.250000     0.250000     0.250000
   46     1.000000   180.000000     0.000000    -0.577350     0.816497     0.250000     0.250000     0.250000
   47     1.000000   180.000000    -0.500000     0.866025    -0.000000     0.250000     0.250000     0.250000
   48     1.000000   180.000000    -0.500000     0.288675     0.816497     0.250000     0.250000     0.250000

 Subroutine IBZKPT_HF returns following result:

 Found    276 k-points in 1st BZ
 the following    276 k-points will be used (e.g. in the exchange kernel)
 Following reciprocal coordinates:   # in IRBZ
  0.000000  0.000000  0.000000    0.00462963   1 t-inv F
  0.166667  0.000000  0.000000    0.00462963   2 t-inv F
  0.333333  0.000000  0.000000    0.00462963   3 t-inv F
  0.500000  0.000000  0.000000    0.00462963   4 t-inv F
  0.166667  0.166667  0.000000    0.00462963   5 t-inv F
  0.333333  0.166667  0.000000    0.00462963   6 t-inv F
  0.500000  0.166667  0.000000    0.00462963   7 t-inv F
 -0.333333  0.166667  0.000000    0.00462963   8 t-inv F
 -0.166667  0.166667  0.000000    0.00462963   9 t-inv F
  0.333333  0.333333  0.000000    0.00462963  10 t-inv F
  0.500000  0.333333  0.000000    0.00462963  11 t-inv F
 -0.333333  0.333333  0.000000    0.00462963  12 t-inv F
  0.500000  0.500000  0.000000    0.00462963  13 t-inv F
  0.500000  0.333333  0.166667    0.00462963  14 t-inv F
 -0.333333  0.333333  0.166667    0.00462963  15 t-inv F
 -0.333333  0.500000  0.166667    0.00462963  16 t-inv F
  0.500000  0.500000  0.500000    0.00000000  17 t-inv F
  0.473684  0.473684  0.473684    0.00000000  18 t-inv F
  0.447368  0.447368  0.447368    0.00000000  19 t-inv F
  0.421053  0.421053  0.421053    0.00000000  20 t-inv F
  0.394737  0.394737  0.394737    0.00000000  21 t-inv F
  0.368421  0.368421  0.368421    0.00000000  22 t-inv F
  0.342105  0.342105  0.342105    0.00000000  23 t-inv F
  0.315789  0.315789  0.315789    0.00000000  24 t-inv F
  0.289474  0.289474  0.289474    0.00000000  25 t-inv F
  0.263158  0.263158  0.263158    0.00000000  26 t-inv F
  0.236842  0.236842  0.236842    0.00000000  27 t-inv F
  0.210526  0.210526  0.210526    0.00000000  28 t-inv F
  0.184211  0.184211  0.184211    0.00000000  29 t-inv F
  0.157895  0.157895  0.157895    0.00000000  30 t-inv F
  0.131579  0.131579  0.131579    0.00000000  31 t-inv F
  0.105263  0.105263  0.105263    0.00000000  32 t-inv F
  0.078947  0.078947  0.078947    0.00000000  33 t-inv F
  0.052632  0.052632  0.052632    0.00000000  34 t-inv F
  0.026316  0.026316  0.026316    0.00000000  35 t-inv F
  0.000000  0.000000  0.000000    0.00000000  36 t-inv F
  0.000000  0.000000  0.000000    0.00000000  37 t-inv F
  0.026316  0.000000  0.026316    0.00000000  38 t-inv F
  0.052632  0.000000  0.052632    0.00000000  39 t-inv F
  0.078947  0.000000  0.078947    0.00000000  40 t-inv F
  0.105263  0.000000  0.105263    0.00000000  41 t-inv F
  0.131579  0.000000  0.131579    0.00000000  42 t-inv F
  0.157895  0.000000  0.157895    0.00000000  43 t-inv F
  0.184211  0.000000  0.184211    0.00000000  44 t-inv F
  0.210526  0.000000  0.210526    0.00000000  45 t-inv F
  0.236842  0.000000  0.236842    0.00000000  46 t-inv F
  0.263158  0.000000  0.263158    0.00000000  47 t-inv F
  0.289474  0.000000  0.289474    0.00000000  48 t-inv F
  0.315789  0.000000  0.315789    0.00000000  49 t-inv F
  0.342105  0.000000  0.342105    0.00000000  50 t-inv F
  0.368421  0.000000  0.368421    0.00000000  51 t-inv F
  0.394737  0.000000  0.394737    0.00000000  52 t-inv F
  0.421053  0.000000  0.421053    0.00000000  53 t-inv F
  0.447368  0.000000  0.447368    0.00000000  54 t-inv F
  0.473684  0.000000  0.473684    0.00000000  55 t-inv F
  0.500000  0.000000  0.500000    0.00000000  56 t-inv F
  0.500000  0.000000  0.500000    0.00000000  57 t-inv F
[...]
   0.11994155 -0.03957045  0.10632602       0.000
   0.11651465 -0.02769931  0.10632602       0.000
   0.11308775 -0.01582818  0.10632602       0.000
   0.10966084 -0.00395704  0.10632602       0.000
   0.10623394  0.00791409  0.10632602       0.000
   0.10280704  0.01978522  0.10632602       0.000
   0.09938014  0.03165636  0.10632602       0.000
   0.09595324  0.04352749  0.10632602       0.000
   0.09252634  0.05539863  0.10632602       0.000
   0.08909943  0.06726976  0.10632602       0.000
   0.08567253  0.07914090  0.10632602       0.000
   0.08224563  0.09101203  0.10632602       0.000
   0.07881873  0.10288316  0.10632602       0.000
   0.07539183  0.11475430  0.10632602       0.000
   0.07196493  0.12662544  0.10632602       0.000
   0.06853803  0.13849657  0.10632602       0.000
   0.06511113  0.15036770  0.10632602       0.000

 k-points in reciprocal lattice and weights: Automatically generated mesh
   0.00000000  0.00000000  0.00000000       0.005
   0.16666667  0.00000000  0.00000000       0.037
   0.33333333  0.00000000  0.00000000       0.037
   0.50000000  0.00000000  0.00000000       0.019
   0.16666667  0.16666667  0.00000000       0.028
   0.33333333  0.16666667  0.00000000       0.111
   0.50000000  0.16666667  0.00000000       0.111
  -0.33333333  0.16666667  0.00000000       0.111
  -0.16666667  0.16666667  0.00000000       0.056
   0.33333333  0.33333333  0.00000000       0.028
   0.50000000  0.33333333  0.00000000       0.111
  -0.33333333  0.33333333  0.00000000       0.056
   0.50000000  0.50000000  0.00000000       0.014
   0.50000000  0.33333333  0.16666667       0.111
  -0.33333333  0.33333333  0.16666667       0.111
  -0.33333333  0.50000000  0.16666667       0.056
   0.50000000  0.50000000  0.50000000       0.000
   0.47368421  0.47368421  0.47368421       0.000
   0.44736842  0.44736842  0.44736842       0.000
   0.42105263  0.42105263  0.42105263       0.000
   0.39473684  0.39473684  0.39473684       0.000
   0.36842105  0.36842105  0.36842105       0.000
   0.34210526  0.34210526  0.34210526       0.000
   0.31578947  0.31578947  0.31578947       0.000
   0.28947368  0.28947368  0.28947368       0.000
   0.26315789  0.26315789  0.26315789       0.000
   0.23684211  0.23684211  0.23684211       0.000
   0.21052632  0.21052632  0.21052632       0.000
   0.18421053  0.18421053  0.18421053       0.000
   0.15789474  0.15789474  0.15789474       0.000
   0.13157895  0.13157895  0.13157895       0.000
   0.10526316  0.10526316  0.10526316       0.000
   0.07894737  0.07894737  0.07894737       0.000
   0.05263158  0.05263158  0.05263158       0.000
   0.02631579  0.02631579  0.02631579       0.000
   0.00000000  0.00000000  0.00000000       0.000
   0.00000000  0.00000000  0.00000000       0.000
   0.02631579  0.00000000  0.02631579       0.000
   0.05263158  0.00000000  0.05263158       0.000
   0.07894737  0.00000000  0.07894737       0.000
   0.10526316  0.00000000  0.10526316       0.000
   0.13157895  0.00000000  0.13157895       0.000
   0.15789474  0.00000000  0.15789474       0.000
   0.18421053  0.00000000  0.18421053       0.000
   0.21052632  0.00000000  0.21052632       0.000
   0.23684211  0.00000000  0.23684211       0.000
   0.26315789  0.00000000  0.26315789       0.000
   0.28947368  0.00000000  0.28947368       0.000
   0.31578947  0.00000000  0.31578947       0.000
   0.34210526  0.00000000  0.34210526       0.000
   0.36842105  0.00000000  0.36842105       0.000
   0.39473684  0.00000000  0.39473684       0.000
   0.42105263  0.00000000  0.42105263       0.000
   0.44736842  0.00000000  0.44736842       0.000
   0.47368421  0.00000000  0.47368421       0.000
   0.50000000  0.00000000  0.50000000       0.000
   0.50000000  0.00000000  0.50000000       0.000
   0.48684211  0.03289474  0.50657895       0.000
   0.47368421  0.06578947  0.51315789       0.000
   0.46052632  0.09868421  0.51973684       0.000
   0.44736842  0.13157895  0.52631579       0.000
   0.43421053  0.16447368  0.53289474       0.000
   0.42105263  0.19736842  0.53947368       0.000
   0.40789474  0.23026316  0.54605263       0.000
   0.39473684  0.26315789  0.55263158       0.000
   0.38157895  0.29605263  0.55921053       0.000
   0.36842105  0.32894737  0.56578947       0.000
   0.35526316  0.36184211  0.57236842       0.000
   0.34210526  0.39473684  0.57894737       0.000
   0.32894737  0.42763158  0.58552632       0.000
   0.31578947  0.46052632  0.59210526       0.000
   0.30263158  0.49342105  0.59868421       0.000
   0.28947368  0.52631579  0.60526316       0.000
   0.27631579  0.55921053  0.61184211       0.000
   0.26315789  0.59210526  0.61842105       0.000
   0.25000000  0.62500000  0.62500000       0.000

 position of ions in fractional coordinates (direct lattice)
   0.00000000  0.00000000  0.00000000
   0.25000000  0.25000000  0.24999999

 position of ions in cartesian coordinates  (Angst):
   0.00000000  0.00000000  0.00000000
   1.91979480  1.10839403  0.78375292

 k-point  1 :   0.0000 0.0000 0.0000  plane waves:     725
 k-point  2 :   0.1667 0.0000 0.0000  plane waves:     718
 k-point  3 :   0.3333 0.0000 0.0000  plane waves:     745
 k-point  4 :   0.5000 0.0000 0.0000  plane waves:     718
 k-point  5 :   0.1667 0.1667 0.0000  plane waves:     709
 k-point  6 :   0.3333 0.1667 0.0000  plane waves:     731
 k-point  7 :   0.5000 0.1667 0.0000  plane waves:     732
 k-point  8 :  -0.3333 0.1667 0.0000  plane waves:     726
 k-point  9 :  -0.1667 0.1667 0.0000  plane waves:     732
 k-point 10 :   0.3333 0.3333 0.0000  plane waves:     717
 k-point 11 :   0.5000 0.3333 0.0000  plane waves:     729
 k-point 12 :  -0.3333 0.3333 0.0000  plane waves:     718
 k-point 13 :   0.5000 0.5000 0.0000  plane waves:     740
 k-point 14 :   0.5000 0.3333 0.1667  plane waves:     728
 k-point 15 :  -0.3333 0.3333 0.1667  plane waves:     730
 k-point 16 :  -0.3333 0.5000 0.1667  plane waves:     718
 k-point 17 :   0.5000 0.5000 0.5000  plane waves:     718
 k-point 18 :   0.4737 0.4737 0.4737  plane waves:     724
 k-point 19 :   0.4474 0.4474 0.4474  plane waves:     736
 k-point 20 :   0.4211 0.4211 0.4211  plane waves:     736
 k-point 21 :   0.3947 0.3947 0.3947  plane waves:     739
 k-point 22 :   0.3684 0.3684 0.3684  plane waves:     745
 k-point 23 :   0.3421 0.3421 0.3421  plane waves:     745
 k-point 24 :   0.3158 0.3158 0.3158  plane waves:     745
 k-point 25 :   0.2895 0.2895 0.2895  plane waves:     739
 k-point 26 :   0.2632 0.2632 0.2632  plane waves:     727
 k-point 27 :   0.2368 0.2368 0.2368  plane waves:     733
 k-point 28 :   0.2105 0.2105 0.2105  plane waves:     724
 k-point 29 :   0.1842 0.1842 0.1842  plane waves:     718
 k-point 30 :   0.1579 0.1579 0.1579  plane waves:     718
 k-point 31 :   0.1316 0.1316 0.1316  plane waves:     718
 k-point 32 :   0.1053 0.1053 0.1053  plane waves:     728
 k-point 33 :   0.0789 0.0789 0.0789  plane waves:     731
 k-point 34 :   0.0526 0.0526 0.0526  plane waves:     725
 k-point 35 :   0.0263 0.0263 0.0263  plane waves:     725
 k-point 36 :   0.0000 0.0000 0.0000  plane waves:     725
 k-point 37 :   0.0000 0.0000 0.0000  plane waves:     725
 k-point 38 :   0.0263 0.0000 0.0263  plane waves:     725
 k-point 39 :   0.0526 0.0000 0.0526  plane waves:     729
 k-point 40 :   0.0789 0.0000 0.0789  plane waves:     729
 k-point 41 :   0.1053 0.0000 0.1053  plane waves:     725
 k-point 42 :   0.1316 0.0000 0.1316  plane waves:     721
 k-point 43 :   0.1579 0.0000 0.1579  plane waves:     721
 k-point 44 :   0.1842 0.0000 0.1842  plane waves:     725
 k-point 45 :   0.2105 0.0000 0.2105  plane waves:     721
 k-point 46 :   0.2368 0.0000 0.2368  plane waves:     721
 k-point 47 :   0.2632 0.0000 0.2632  plane waves:     725
 k-point 48 :   0.2895 0.0000 0.2895  plane waves:     721
 k-point 49 :   0.3158 0.0000 0.3158  plane waves:     717
 k-point 50 :   0.3421 0.0000 0.3421  plane waves:     717
 k-point 51 :   0.3684 0.0000 0.3684  plane waves:     725
 k-point 52 :   0.3947 0.0000 0.3947  plane waves:     729
 k-point 53 :   0.4211 0.0000 0.4211  plane waves:     725
 k-point 54 :   0.4474 0.0000 0.4474  plane waves:     732
 k-point 55 :   0.4737 0.0000 0.4737  plane waves:     740
 k-point 56 :   0.5000 0.0000 0.5000  plane waves:     740
 k-point 57 :   0.5000 0.0000 0.5000  plane waves:     740
 k-point 58 :   0.4868 0.0329 0.5066  plane waves:     733
 k-point 59 :   0.4737 0.0658 0.5132  plane waves:     728
 k-point 60 :   0.4605 0.0987 0.5197  plane waves:     726
 k-point 61 :   0.4474 0.1316 0.5263  plane waves:     733
 k-point 62 :   0.4342 0.1645 0.5329  plane waves:     732
 k-point 63 :   0.4211 0.1974 0.5395  plane waves:     728
 k-point 64 :   0.4079 0.2303 0.5461  plane waves:     726
 k-point 65 :   0.3947 0.2632 0.5526  plane waves:     726
 k-point 66 :   0.3816 0.2961 0.5592  plane waves:     721
 k-point 67 :   0.3684 0.3289 0.5658  plane waves:     722
 k-point 68 :   0.3553 0.3618 0.5724  plane waves:     725
 k-point 69 :   0.3421 0.3947 0.5789  plane waves:     724
 k-point 70 :   0.3289 0.4276 0.5855  plane waves:     722
 k-point 71 :   0.3158 0.4605 0.5921  plane waves:     724
 k-point 72 :   0.3026 0.4934 0.5987  plane waves:     726
 k-point 73 :   0.2895 0.5263 0.6053  plane waves:     724
 k-point 74 :   0.2763 0.5592 0.6118  plane waves:     724
 k-point 75 :   0.2632 0.5921 0.6184  plane waves:     725
 k-point 76 :   0.2500 0.6250 0.6250  plane waves:     724

 maximum and minimum number of plane-waves per node :       745      709

 maximum number of plane-waves:       745
 maximum index in each direction:
   IXMAX=    6   IYMAX=    6   IZMAX=    6
   IXMIN=   -6   IYMIN=   -6   IZMIN=   -6

 serial   3D FFT for wavefunctions
 parallel 3D FFT for charge:
    minimum data exchange during FFTs selected (reduces bandwidth)

 Radii for the augmentation spheres in the non-local exchange
 for species   1 augmentation radius   1.237 (default was   0.989)
       energy cutoff for augmentation   1600.0
 Maximum index for augmentation-charges in exchange         1553
  SETUP_FOCK is finished

 charge density for first step will be calculated from the start-wavefunctions

 Maximum index for augmentation-charges         1203 (set IRDMAX)

 initial charge from wavefunction
 First call to EWALD:  gamma=   0.518
 Maximum number of real-space cells 3x 3x 3
 Maximum number of reciprocal cells 3x 3x 3

--------------------------------------- Iteration      1(   1)  ---------------------------------------

 eigenvalue-minimisations  :  5268
 total energy-change (2. order) :-0.1256729E+02  (-0.4636228E-07)
 number of electron       8.0000004 magnetization
 augmentation part       -0.4340678 magnetization

 Free energy of the ion-electron system (eV)
  alpha Z        PSCENC =         3.36414786
  Ewald energy   TEWEN  =      -228.56353838
  -Hartree energ DENC   =       -15.02018177
  -exchange      EXHF   =        11.29478838
  -V(xc)+E(xc)   XCENC  =       -14.36635532
  PAW double counting   =      1694.84428454    -1667.20199281
  entropy T*S    EENTRO =        -0.00000000
  eigenvalues    EBANDS =        -0.91578025
  atomic energy  EATOM  =       203.99733562
  Solvation  Ediel_sol  =         0.00000000
  free energy    TOTEN  =       -12.56729213 eV

  energy without entropy =      -12.56729213  energy(sigma->0) =      -12.56729213
  exchange ACFDT corr.  =        -0.00000000  see jH, gK, PRB 81, 115126

--------------------------------------- Iteration      1(   2)  ---------------------------------------

 eigenvalue-minimisations  :  4416
 total energy-change (2. order) : 0.3840313E-08  (-0.9121128E-09)
 number of electron       8.0000004 magnetization
 augmentation part       -0.4340678 magnetization

 Free energy of the ion-electron system (eV)
  alpha Z        PSCENC =         3.36414786
  Ewald energy   TEWEN  =      -228.56353838
  -Hartree energ DENC   =       -15.02024658
  -exchange      EXHF   =        11.29487918
  -V(xc)+E(xc)   XCENC  =       -14.36634612
  PAW double counting   =      1694.88478939    -1667.24249382
  entropy T*S    EENTRO =        -0.00000000
  eigenvalues    EBANDS =        -0.91581927
  atomic energy  EATOM  =       203.99733562
  Solvation  Ediel_sol  =         0.00000000
  free energy    TOTEN  =       -12.56729213 eV

  energy without entropy =      -12.56729213  energy(sigma->0) =      -12.56729213
  exchange ACFDT corr.  =         0.00000000  see jH, gK, PRB 81, 115126

 average (electrostatic) potential at core
  the test charge radii are     0.9892
  (the norm of the test charge is              1.0000)
       1 -79.5174       2 -79.5174

 E-fermi :   5.7786     XC(G=0):  -7.8361     alpha+bet :-11.9845

 k-point     1 :       0.0000    0.0000    0.0000
  band No.  band energies     occupation
      1      -7.8290      2.00000
      2       5.4707      2.00000
      3       5.4707      2.00000
      4       5.4707      2.00000
      5       8.8144      0.00000
      6       8.8144      0.00000
      7       8.8144      0.00000
      8       9.8187      0.00000
      9      14.2789      0.00000
     10      14.2789      0.00000
     11      14.2886      0.00000
     12      17.8233      0.00000
     13      17.8233      0.00000
     14      17.8233      0.00000
     15      21.7746      0.00000
     16      30.2596      0.00000
     17      30.2596      0.00000
     18      30.2596      0.00000
     19      31.5586      0.00000
     20      31.5586      0.00000
     21      33.1236      0.00000
     22      33.1236      0.00000
     23      33.1236      0.00000
     24      36.2973      0.00000

[...]

 k-point    76 :       0.2500    0.6250    0.6250
  band No.  band energies     occupation
      1      -3.6687      2.00000
      2      -2.5422      2.00000
      3       0.7694      2.00000
      4       2.8104      2.00000
      5       7.3130      0.00000
      6      10.4343      0.00000
      7      14.1274      0.00000
      8      14.6144      0.00000
      9      14.9430      0.00000
     10      15.0765      0.00000
     11      21.6124      0.00000
     12      21.8721      0.00000
     13      22.4935      0.00000
     14      22.5759      0.00000
     15      22.5775      0.00000
     16      24.1090      0.00000
     17      26.8044      0.00000
     18      26.8462      0.00000
     19      28.3951      0.00000
     20      28.4263      0.00000
     21      29.7497      0.00000
     22      30.1606      0.00000
     23      32.1352      0.00000
     24      32.8124      0.00000

 soft charge-density along one line, spin component           1
         0         1         2         3         4         5         6         7         8         9
 total charge-density along one line

------------------------ aborting loop because EDIFF is reached ----------------------------------------

 total charge

# of ion       s       p       d       tot
    1        0.758   0.966   0.000   1.724
    2        0.758   0.966   0.000   1.724
tot          1.516   1.932   0.000   3.448

 VOLUME and BASIS-vectors are now :
  energy-cutoff  :      400.00
  volume of cell :       40.03
      direct lattice vectors                 reciprocal lattice vectors
     3.839589596  0.000000000  0.000000000     0.260444502 -0.150367703 -0.106326023
     1.919794798  3.325182130  0.000000000     0.000000000  0.300735407 -0.106326023
     1.919794798  1.108394043  3.135011777     0.000000000  0.000000000  0.318978068

  length of vectors
     3.839589596  3.839589596  3.839589596     0.318978068  0.318978068  0.318978068

 FORCES acting on ions
    electron-ion (+dipol)            ewald-force                    non-local-force                 convergence-correction
   0.343E-06 -.686E-06 -.186E-06   -.171E-13 -.374E-06 -.603E-06   -.243E-16 -.625E-16 0.208E-16   0.680E-07 0.143E-07 0.450E-07
   -.919E-06 0.190E-05 0.109E-05   0.171E-13 0.374E-06 0.603E-06   0.347E-17 0.694E-16 -.278E-16   -.662E-07 -.189E-07 -.444E-07
   -.576E-06 0.121E-05 0.902E-06   0.116E-16 0.109E-15 -.242E-15   -.208E-16 0.694E-17 -.694E-17   0.179E-08 -.462E-08 0.595E-09

 POSITION                                       TOTAL-FORCE (eV/Angst)
      0.00000      0.00000      0.00000         0.000000     -0.000000     -0.000000
      1.91979      1.10839      0.78375        -0.000000      0.000000      0.000000
    total drift:                               -0.000001      0.000001      0.000001

  FREE ENERGIE OF THE ION-ELECTRON SYSTEM (eV)
  free  energy   TOTEN  =       -12.56729213 eV

  energy  without entropy=      -12.56729213  energy(sigma->0) =      -12.56729213

 total charge

# of ion       s       p       d       tot
    1        0.758   0.966   0.000   1.724
    2        0.758   0.966   0.000   1.724
tot          1.516   1.932   0.000   3.448